\ENCODING=ISO-8859-1
\Problem name: ilog.cplex

Minimize
 obj: 145.663875017131 x_0 + 138.960472997507 x_1 + 285.677108993199 x_2
      + 136.88302408307 x_3 + 279.6025820206 x_4 + 66.4896498289952 x_5
      + 196.505625124831 x_6 + 153.180165396143 x_7 + 190.54235903976 x_8
      + 159.289631076309 x_9 + 274.3724126459 x_10 + 214.899040422003 x_11
      + 290.141556038324 x_12 + 217.07020339158 x_13 + 179.544966360257 x_14
      + 294.723217207246 x_15 + 160.652713780114 x_16 + 275.627279947127 x_17
      + 227.968105459339 x_18 + 160.612944481201 x_19 + 164.321335664502 x_20
      + 186.89117094816 x_21 + 184.926741686399 x_22 + 145.932414870579 x_23
      + 103.708084633455 x_24 + 194.299711225822 x_25 + 224.942229752017 x_26
      + 152.721226913688 x_27 + 210.024136339553 x_28 + 280.846996807911 x_29
      + 157.993566569089 x_30 + 189.951986327244 x_31 + 167.564867717502 x_32
      + 243.650732039085 x_33 + 146.047695089867 x_34 + 101.033151012736 x_35
      + 223.262022380997 x_36 + 204.25547856106 x_37 + 197.299812274608 x_38
      + 213.903233701468 x_39 + 147.063713020697 x_40 + 127.262185593137 x_41
      + 242.840661152631 x_42 + 314.423396437474 x_43 + 152.639094919785 x_44
      + 218.188327732859 x_45 + 215.894706144749 x_46 + 261.499774070048 x_47
      + 216.217632502844 x_48 + 155.776997307397 x_49 + 192.191493246332 x_50
      + 149.699521378998 x_51 + 221.001004108308 x_52 + 127.790400925683 x_53
      + 215.749454203312 x_54 + 159.531254705983 x_55 + 190.449272131583 x_56
      + 163.539231599279 x_57 + 152.562823495982 x_58 + 252.623760627009 x_59
      + 285.076207256334 x_60 + 280.803166986254 x_61 + 283.540807275757 x_62
      + 196.477493738507 x_63 + 156.045555165441 x_64 + 124.138457092651 x_65
      + 187.076204626215 x_66 + 197.448683734121 x_67 + 227.991933424331 x_68
      + 154.247909057112 x_69 + 321.105281668624 x_70 + 155.71367089489 x_71
      + 192.609238573588 x_72 + 234.85169013293 x_73 + 197.869418473879 x_74
      + 192.361837901066 x_75 + 177.806006573014 x_76 + 196.269959944585 x_77
      + 232.852850493187 x_78 + 262.363436311353 x_79 + 146.751312217744 x_80
      + 126.072618540436 x_81 + 151.735149467292 x_82 + 147.385723549501 x_83
      + 169.644716837382 x_84 + 138.392709713497 x_85 + 152.915909099237 x_86
      + 128.265569578995 x_87 + 78.6941863198681 x_88 + 129.988356651083 x_89
      + 272.770849606399 x_90 + 213.62319762398 x_91 + 122.428708078331 x_92
      + 219.90010376739 x_93 + 188.12718916412 x_94 + 194.176699908013 x_95
      + 176.108476867424 x_96 + 234.691036044736 x_97 + 253.198600801188 x_98
      + 159.505545210979 x_99 + 280.232819704722 x_100 + 220.530128976833 x_101
      + 259.088441448021 x_102 + 227.546872436777 x_103
      + 239.079238928414 x_104 + 292.514325276225 x_105
      + 113.393888145769 x_106 + 280.266552816392 x_107
      + 160.410909043348 x_108 + 219.734647395355 x_109
      + 226.205966579383 x_110 + 191.61546194011 x_111 + 144.497677589386 x_112
      + 135.793663031112 x_113 + 144.121575193027 x_114
      + 168.440590944414 x_115 + 148.834724322599 x_116
      + 224.088165601072 x_117 + 185.561966202298 x_118
      + 244.314065879728 x_119 + 195.611176524576 x_120 + 226.03587746687 x_121
      + 204.398907365897 x_122 + 256.796108764743 x_123
      + 192.268948769098 x_124 + 231.494918932735 x_125
      + 208.956893309136 x_126 + 232.041039454557 x_127
      + 129.416487945028 x_128 + 310.593757603429 x_129
      + 203.108688489534 x_130 + 172.02787451408 x_131 + 191.212747226049 x_132
      + 183.515447713247 x_133 + 151.864028794293 x_134
      + 172.272825353032 x_135 + 239.740307462967 x_136
      + 253.425332998743 x_137 + 172.91234286046 x_138 + 162.682303766394 x_139
      + 242.470405349384 x_140 + 167.289637124306 x_141
      + 203.181668470014 x_142 + 136.393590717427 x_143
      + 227.055908714688 x_144 + 191.148804405593 x_145
      + 218.722899391665 x_146 + 153.365188333529 x_147
      + 277.700206133028 x_148 + 118.982979936527 x_149
      + 204.554087265479 x_150 + 144.244681172015 x_151
      + 161.583716192249 x_152 + 226.853992719439 x_153
      + 210.653010469119 x_154 + 73.1188441565201 x_155
      + 165.425869596653 x_156 + 236.984937777591 x_157
      + 246.015690649446 x_158 + 293.911437976331 x_159
      + 162.531966300198 x_160 + 159.087207286503 x_161
      + 231.157564807506 x_162 + 207.911715610377 x_163
      + 139.990862950683 x_164 + 234.597222976729 x_165
      + 207.051642463142 x_166 + 122.729273986862 x_167
      + 217.696732041767 x_168 + 292.441631318481 x_169
      + 155.853157614753 x_170 + 148.636271780758 x_171
      + 212.355833854769 x_172 + 136.474704378365 x_173
      + 188.929285181939 x_174 + 307.362602824072 x_175
      + 290.625440578546 x_176 + 194.584285789183 x_177
      + 191.616169130807 x_178 + 267.315314632908 x_179
      + 186.641629804225 x_180 + 234.631622485083 x_181
      + 187.673009694746 x_182 + 250.350085118742 x_183
      + 243.895883448143 x_184 + 203.489841286013 x_185
      + 181.079104295541 x_186 + 187.92404344302 x_187 + 143.326329975845 x_188
      + 114.169496585276 x_189 + 187.01164215866 x_190 + 124.482302884095 x_191
      + 148.824001823194 x_192 + 90.5283279295128 x_193 + 100.31280291981 x_194
      + 226.292755237339 x_195 + 123.918841039563 x_196
      + 140.475877908767 x_197 + 199.65565867697 x_198 + 300.484315783713 x_199
      + 210.562075259902 x_200 + 208.919923462712 x_201
      + 126.902567199861 x_202 + 104.39879889224 x_203 + 61.2684067941735 x_204
      + 223.32850330562 x_205 + 217.450447024342 x_206 + 247.971206169083 x_207
      + 122.292266884773 x_208 + 207.132339921572 x_209
      + 124.683378984013 x_210 + 129.179690097009 x_211
      + 173.038201830959 x_212 + 123.327787253488 x_213
      + 125.397827925059 x_214 + 105.716866008474 x_215
      + 257.634546706954 x_216 + 193.254102843228 x_217
      + 188.548906845312 x_218 + 218.663257006984 x_219
      + 250.758180941523 x_220 + 215.248429875621 x_221
      + 125.447482241049 x_222 + 276.346031205464 x_223
      + 175.545820023973 x_224 + 141.613461952393 x_225 + 297.54600629473 x_226
      + 126.691680028909 x_227 + 122.605337637782 x_228
      + 212.279407688154 x_229 + 85.7609954368723 x_230
      + 294.353125697691 x_231 + 139.749496787931 x_232
      + 165.477503538621 x_233 + 220.765111164507 x_234
      + 194.162064556259 x_235 + 197.549930231966 x_236
      + 221.875668763138 x_237 + 265.103862659262 x_238
      + 216.061815363237 x_239 + 227.590513602653 x_240
      + 162.746870060199 x_241 + 202.996234280638 x_242
      + 165.862980971397 x_243 + 219.653676064806 x_244
      + 127.986912789398 x_245 + 225.394778953306 x_246
      + 140.249564062255 x_247 + 192.508549570185 x_248
      + 365.993370268547 x_249 + 232.428477144363 x_250
      + 156.591725941396 x_251 + 144.205424247244 x_252
      + 282.392283988148 x_253 + 149.408331385617 x_254
      + 289.627339123553 x_255 + 217.181619185516 x_256
      + 289.491356984725 x_257
Subject To
 cover_2:  x_9 + x_20 + x_30 + x_35 + x_44 + x_56 + x_65 + x_69 + x_88 + x_89
           + x_92 + x_106 + x_113 + x_166 + x_188 + x_191 + x_197 + x_202
           + x_203 + x_210 + x_215 + x_230 + x_247 >= 1
 cover_3:  x_25 + x_33 + x_39 + x_42 + x_43 + x_63 + x_73 + x_100 + x_109
           + x_121 + x_122 + x_125 + x_126 + x_150 + x_154 + x_157 + x_162
           + x_163 + x_165 + x_172 + x_174 + x_209 + x_218 + x_226 + x_229
           + x_237 + x_248 + x_249 + x_250 >= 1
 cover_4:  x_3 + x_7 + x_14 + x_24 + x_25 + x_27 + x_36 + x_41 + x_53 + x_55
           + x_81 + x_103 + x_118 + x_128 + x_143 + x_160 + x_167 + x_173
           + x_191 + x_196 + x_202 + x_213 + x_214 + x_228 + x_240 >= 1
 cover_5:  x_6 + x_22 + x_38 + x_47 + x_59 + x_75 + x_77 + x_102 + x_111
           + x_119 + x_120 + x_123 + x_132 + x_145 + x_148 + x_177 + x_183
           + x_207 + x_217 + x_235 >= 1
 cover_6:  x_27 + x_30 + x_32 + x_39 + x_67 + x_71 + x_72 + x_83 + x_84 + x_94
           + x_96 + x_108 + x_116 + x_126 + x_131 + x_152 + x_154 + x_161
           + x_176 + x_180 + x_192 + x_198 + x_205 + x_220 + x_254 + x_257 >= 1
 cover_7:  x_16 + x_20 + x_26 + x_32 + x_52 + x_54 + x_62 + x_69 + x_72 + x_76
           + x_78 + x_84 + x_94 + x_96 + x_99 + x_110 + x_131 + x_133 + x_139
           + x_141 + x_152 + x_168 + x_180 + x_186 + x_205 + x_224 + x_255
           + x_256 >= 1
 cover_8:  x_19 + x_44 + x_49 + x_51 + x_56 + x_57 + x_58 + x_64 + x_65 + x_66
           + x_76 + x_141 + x_148 + x_187 + x_191 + x_197 + x_202 + x_203
           + x_215 + x_224 + x_230 + x_245 + x_251 >= 1
 cover_9:  x_10 + x_33 + x_39 + x_42 + x_63 + x_73 + x_98 + x_109 + x_110
           + x_121 + x_122 + x_125 + x_126 + x_136 + x_150 + x_154 + x_157
           + x_162 + x_163 + x_165 + x_172 + x_184 + x_209 + x_226 + x_229
           + x_237 + x_238 + x_249 + x_250 >= 1
 cover_10: x_17 + x_18 + x_46 + x_47 + x_48 + x_59 + x_68 + x_70 + x_91 + x_100
           + x_101 + x_102 + x_103 + x_119 + x_123 + x_137 + x_140 + x_146
           + x_148 + x_169 + x_179 + x_200 + x_207 + x_216 + x_219 + x_239
           + x_240 + x_244 + x_246 >= 1
 cover_11: x_13 + x_19 + x_28 + x_31 + x_33 + x_42 + x_44 + x_51 + x_58 + x_64
           + x_67 + x_73 + x_100 + x_115 + x_134 + x_138 + x_156 + x_157
           + x_174 + x_182 + x_185 + x_218 + x_233 + x_245 + x_250 >= 1
 cover_12: x_19 + x_25 + x_49 + x_54 + x_64 + x_76 + x_79 + x_80 + x_82 + x_95
           + x_99 + x_109 + x_115 + x_121 + x_122 + x_135 + x_138 + x_139
           + x_156 + x_161 + x_170 + x_172 + x_174 + x_212 + x_218 + x_224
           + x_229 + x_251 >= 1
 cover_13: x_23 + x_30 + x_32 + x_37 + x_45 + x_53 + x_71 + x_83 + x_84 + x_85
           + x_94 + x_99 + x_108 + x_116 + x_131 + x_142 + x_161 + x_170
           + x_188 + x_192 + x_198 + x_210 + x_225 + x_233 + x_242 + x_254 >= 1
 cover_14: x_5 + x_16 + x_28 + x_29 + x_35 + x_51 + x_53 + x_85 + x_92 + x_95
           + x_101 + x_106 + x_143 + x_154 + x_160 + x_167 + x_182 + x_188
           + x_190 + x_192 + x_194 + x_196 + x_200 + x_202 + x_203 + x_211
           + x_225 >= 1
 cover_15: x_8 + x_10 + x_19 + x_28 + x_31 + x_33 + x_37 + x_54 + x_66 + x_98
           + x_138 + x_142 + x_156 + x_158 + x_178 + x_182 + x_185 + x_206
           + x_212 + x_233 >= 1
 cover_17: x_10 + x_15 + x_17 + x_36 + x_73 + x_79 + x_97 + x_110 + x_117
           + x_125 + x_136 + x_144 + x_157 + x_159 + x_162 + x_165 + x_175
           + x_176 + x_184 + x_195 + x_199 + x_205 + x_221 + x_256 >= 1
 cover_16: x_2 + x_11 + x_18 + x_46 + x_52 + x_61 + x_62 + x_68 + x_70 + x_91
           + x_93 + x_100 + x_101 + x_118 + x_146 + x_166 + x_179 + x_183
           + x_200 + x_201 + x_219 + x_226 + x_231 + x_234 + x_239 + x_240
           + x_244 + x_246 + x_253 >= 1
 cover_19: x_8 + x_28 + x_31 + x_33 + x_37 + x_42 + x_50 + x_54 + x_66 + x_79
           + x_95 + x_98 + x_142 + x_158 + x_178 + x_185 + x_187 + x_206
           + x_242 >= 1
 cover_18: x_3 + x_14 + x_18 + x_21 + x_30 + x_45 + x_55 + x_56 + x_61 + x_68
           + x_71 + x_78 + x_83 + x_108 + x_117 + x_151 + x_172 + x_173 + x_188
           + x_190 + x_198 + x_229 + x_234 + x_236 + x_254 >= 1
 cover_21: x_2 + x_4 + x_11 + x_12 + x_15 + x_17 + x_36 + x_62 + x_74 + x_78
           + x_104 + x_107 + x_117 + x_127 + x_130 + x_136 + x_153 + x_168
           + x_184 + x_195 + x_201 + x_205 + x_223 + x_250 + x_255 + x_257 >= 1
 cover_20: x_2 + x_4 + x_12 + x_29 + x_61 + x_70 + x_90 + x_104 + x_105 + x_107
           + x_127 + x_129 + x_137 + x_140 + x_169 + x_175 + x_179 + x_199
           + x_216 + x_220 + x_223 + x_231 + x_238 + x_253 + x_257 >= 1
 cover_23: x_6 + x_38 + x_47 + x_59 + x_75 + x_77 + x_93 + x_102 + x_111
           + x_120 + x_123 + x_132 + x_145 + x_177 + x_183 + x_207 + x_217
           + x_235 + x_241 + x_243 >= 1
 cover_22: x_8 + x_9 + x_13 + x_35 + x_50 + x_80 + x_88 + x_89 + x_92 + x_106
           + x_115 + x_138 + x_142 + x_156 + x_166 + x_170 + x_182 + x_206
           + x_215 + x_230 + x_245 >= 1
 cover_25: x_10 + x_16 + x_20 + x_26 + x_28 + x_32 + x_52 + x_54 + x_69 + x_72
           + x_76 + x_84 + x_94 + x_96 + x_99 + x_131 + x_139 + x_141 + x_150
           + x_152 + x_168 + x_180 + x_185 + x_186 + x_209 + x_248 + x_249 >= 1
 cover_24: x_16 + x_20 + x_23 + x_69 + x_80 + x_82 + x_85 + x_90 + x_99 + x_110
           + x_113 + x_116 + x_134 + x_139 + x_141 + x_148 + x_152 + x_161
           + x_163 + x_170 + x_185 + x_192 + x_209 + x_221 + x_225 + x_233
           + x_256 >= 1
 cover_27: x_2 + x_4 + x_12 + x_15 + x_29 + x_60 + x_61 + x_62 + x_70 + x_90
           + x_105 + x_107 + x_129 + x_159 + x_169 + x_175 + x_176 + x_199
           + x_223 + x_231 + x_238 + x_253 + x_255 + x_257 >= 1
 cover_26: x_11 + x_21 + x_56 + x_61 + x_70 + x_74 + x_102 + x_104 + x_118
           + x_127 + x_130 + x_137 + x_140 + x_146 + x_168 + x_169 + x_179
           + x_183 + x_190 + x_201 + x_219 + x_220 + x_223 + x_239 + x_244
           + x_246 + x_253 >= 1
 cover_29: x_8 + x_19 + x_31 + x_44 + x_49 + x_50 + x_57 + x_58 + x_64 + x_66
           + x_95 + x_124 + x_135 + x_156 + x_178 + x_182 + x_187 + x_212
           + x_251 >= 1
 cover_28: x_14 + x_26 + x_27 + x_29 + x_39 + x_52 + x_55 + x_71 + x_72 + x_79
           + x_94 + x_96 + x_98 + x_108 + x_121 + x_127 + x_131 + x_133 + x_153
           + x_154 + x_163 + x_165 + x_172 + x_180 + x_201 + x_209 + x_226 >= 1
 cover_31: x_16 + x_25 + x_26 + x_32 + x_52 + x_72 + x_84 + x_90 + x_94 + x_96
           + x_97 + x_109 + x_121 + x_122 + x_125 + x_131 + x_133 + x_139
           + x_144 + x_152 + x_158 + x_159 + x_162 + x_168 + x_180 + x_206
           + x_221 + x_248 + x_256 >= 1
 cover_30: x_2 + x_3 + x_12 + x_30 + x_67 + x_71 + x_78 + x_83 + x_98 + x_108
           + x_109 + x_116 + x_121 + x_150 + x_158 + x_161 + x_172 + x_180
           + x_188 + x_192 + x_197 + x_206 + x_225 + x_229 + x_247 + x_248
           + x_250 + x_254 >= 1
 cover_34: x_12 + x_18 + x_29 + x_43 + x_45 + x_46 + x_47 + x_48 + x_52 + x_59
           + x_62 + x_68 + x_70 + x_91 + x_103 + x_105 + x_107 + x_153 + x_166
           + x_175 + x_179 + x_181 + x_183 + x_231 + x_234 + x_240 + x_244
           + x_249 + x_257 >= 1
 cover_35: x_10 + x_25 + x_28 + x_37 + x_43 + x_54 + x_73 + x_76 + x_109
           + x_121 + x_122 + x_135 + x_136 + x_142 + x_157 + x_158 + x_165
           + x_172 + x_174 + x_180 + x_185 + x_206 + x_224 + x_229 + x_242
           + x_250 >= 1
 cover_32: x_4 + x_11 + x_12 + x_14 + x_18 + x_55 + x_56 + x_61 + x_68 + x_71
           + x_78 + x_83 + x_108 + x_117 + x_130 + x_148 + x_151 + x_172
           + x_190 + x_195 + x_223 + x_229 + x_234 + x_236 + x_250 >= 1
 cover_33: x_6 + x_22 + x_38 + x_47 + x_59 + x_75 + x_77 + x_102 + x_111
           + x_119 + x_120 + x_123 + x_132 + x_145 + x_148 + x_177 + x_183
           + x_207 + x_217 + x_235 >= 1
 cover_38: x_25 + x_33 + x_39 + x_42 + x_43 + x_63 + x_73 + x_100 + x_109
           + x_121 + x_122 + x_125 + x_126 + x_150 + x_154 + x_157 + x_162
           + x_163 + x_165 + x_172 + x_174 + x_209 + x_218 + x_226 + x_229
           + x_237 + x_248 + x_249 + x_250 >= 1
 cover_39: x_1 + x_7 + x_9 + x_22 + x_34 + x_40 + x_48 + x_86 + x_87 + x_101
           + x_111 + x_112 + x_114 + x_119 + x_149 + x_164 + x_171 + x_181
           + x_189 + x_208 + x_211 + x_222 + x_227 + x_232 + x_234 + x_252 >= 1
 cover_36: x_2 + x_4 + x_12 + x_15 + x_29 + x_43 + x_60 + x_61 + x_62 + x_70
           + x_90 + x_105 + x_107 + x_129 + x_159 + x_169 + x_175 + x_176
           + x_199 + x_223 + x_231 + x_253 + x_255 + x_257 >= 1
 cover_37: x_0 + x_7 + x_41 + x_46 + x_65 + x_81 + x_87 + x_91 + x_114 + x_124
           + x_128 + x_147 + x_149 + x_151 + x_153 + x_155 + x_160 + x_164
           + x_193 + x_194 + x_208 + x_211 + x_214 + x_232 >= 1
 cover_42: x_10 + x_11 + x_18 + x_21 + x_26 + x_52 + x_68 + x_74 + x_93 + x_102
           + x_118 + x_130 + x_137 + x_146 + x_166 + x_179 + x_181 + x_183
           + x_190 + x_201 + x_219 + x_223 + x_234 + x_239 + x_244 + x_246
           + x_253 >= 1
 cover_43: x_3 + x_5 + x_24 + x_35 + x_53 + x_65 + x_67 + x_82 + x_83 + x_96
           + x_97 + x_106 + x_144 + x_147 + x_155 + x_173 + x_191 + x_193
           + x_194 + x_213 + x_214 + x_215 + x_227 + x_236 + x_247 >= 1
 cover_40: x_0 + x_14 + x_15 + x_41 + x_55 + x_74 + x_81 + x_107 + x_118
           + x_128 + x_140 + x_151 + x_160 + x_167 + x_176 + x_183 + x_196
           + x_201 + x_213 + x_214 + x_219 + x_228 + x_244 + x_247 >= 1
 cover_41: x_9 + x_13 + x_35 + x_39 + x_51 + x_66 + x_80 + x_88 + x_89 + x_92
           + x_106 + x_116 + x_126 + x_134 + x_143 + x_156 + x_166 + x_187
           + x_192 + x_204 + x_215 + x_230 + x_238 + x_245 >= 1
 cover_46: x_6 + x_38 + x_45 + x_47 + x_59 + x_75 + x_77 + x_93 + x_111 + x_120
           + x_132 + x_145 + x_177 + x_207 + x_216 + x_217 + x_234 + x_235
           + x_241 + x_243 >= 1
 cover_47: x_11 + x_18 + x_21 + x_26 + x_52 + x_56 + x_68 + x_93 + x_102
           + x_103 + x_118 + x_130 + x_137 + x_146 + x_166 + x_179 + x_181
           + x_183 + x_190 + x_219 + x_223 + x_234 + x_239 + x_240 + x_244
           + x_246 + x_253 >= 1
 cover_44: x_10 + x_15 + x_17 + x_60 + x_73 + x_79 + x_97 + x_110 + x_117
           + x_125 + x_136 + x_144 + x_157 + x_159 + x_162 + x_165 + x_175
           + x_176 + x_184 + x_195 + x_199 + x_205 + x_221 + x_256 >= 1
 cover_45: x_16 + x_23 + x_32 + x_39 + x_53 + x_67 + x_71 + x_72 + x_83 + x_84
           + x_85 + x_94 + x_108 + x_110 + x_116 + x_126 + x_131 + x_152
           + x_154 + x_161 + x_168 + x_184 + x_210 + x_225 + x_233 + x_242
           + x_254 >= 1
 cover_51: x_6 + x_13 + x_34 + x_38 + x_40 + x_45 + x_75 + x_77 + x_86 + x_112
           + x_120 + x_147 + x_148 + x_177 + x_181 + x_207 + x_216 + x_217
           + x_235 + x_241 + x_243 >= 1
 cover_50: x_1 + x_9 + x_13 + x_30 + x_34 + x_48 + x_51 + x_86 + x_87 + x_101
           + x_112 + x_149 + x_155 + x_164 + x_171 + x_181 + x_189 + x_198
           + x_203 + x_204 + x_208 + x_211 + x_217 + x_222 + x_227 + x_232 >= 1
 cover_49: x_8 + x_28 + x_31 + x_33 + x_37 + x_42 + x_50 + x_54 + x_66 + x_95
           + x_98 + x_142 + x_158 + x_178 + x_182 + x_185 + x_187 + x_206
           + x_242 >= 1
 cover_48: x_2 + x_12 + x_15 + x_29 + x_43 + x_61 + x_70 + x_105 + x_107
           + x_129 + x_137 + x_159 + x_169 + x_175 + x_176 + x_199 + x_216
           + x_223 + x_226 + x_231 + x_249 + x_253 + x_255 + x_257 >= 1
 cover_55: x_17 + x_18 + x_45 + x_46 + x_47 + x_48 + x_59 + x_68 + x_70 + x_91
           + x_93 + x_100 + x_101 + x_103 + x_123 + x_129 + x_137 + x_140
           + x_146 + x_153 + x_169 + x_179 + x_200 + x_207 + x_219 + x_236
           + x_239 + x_240 + x_246 >= 1
 cover_54: x_0 + x_6 + x_11 + x_23 + x_29 + x_38 + x_40 + x_41 + x_46 + x_48
           + x_77 + x_81 + x_87 + x_89 + x_91 + x_114 + x_124 + x_129 + x_130
           + x_147 + x_158 + x_168 + x_186 + x_193 + x_194 + x_222 + x_227 >= 1
 cover_53: x_8 + x_19 + x_28 + x_44 + x_49 + x_50 + x_57 + x_58 + x_64 + x_76
           + x_115 + x_124 + x_135 + x_156 + x_178 + x_182 + x_187 + x_212
           + x_224 + x_237 >= 1
 cover_52: x_2 + x_3 + x_20 + x_24 + x_36 + x_41 + x_55 + x_59 + x_62 + x_65
           + x_74 + x_83 + x_84 + x_106 + x_109 + x_141 + x_143 + x_144 + x_159
           + x_169 + x_173 + x_194 + x_196 + x_202 + x_214 + x_226 + x_247
           + x_255 >= 1
 cover_59: x_1 + x_6 + x_7 + x_13 + x_22 + x_34 + x_40 + x_48 + x_75 + x_77
           + x_86 + x_87 + x_101 + x_111 + x_112 + x_119 + x_149 + x_171
           + x_181 + x_189 + x_208 + x_211 + x_217 + x_222 + x_227 + x_252 >= 1
 cover_58: x_2 + x_4 + x_10 + x_12 + x_17 + x_36 + x_43 + x_62 + x_90 + x_97
           + x_104 + x_105 + x_117 + x_127 + x_136 + x_144 + x_159 + x_175
           + x_184 + x_195 + x_199 + x_220 + x_231 + x_255 + x_257 >= 1
 cover_57: x_2 + x_12 + x_15 + x_29 + x_43 + x_60 + x_61 + x_62 + x_70 + x_105
           + x_107 + x_129 + x_159 + x_169 + x_175 + x_176 + x_199 + x_223
           + x_226 + x_231 + x_249 + x_253 + x_255 + x_257 >= 1
 cover_56: x_18 + x_43 + x_46 + x_48 + x_60 + x_61 + x_68 + x_70 + x_91 + x_100
           + x_101 + x_103 + x_105 + x_119 + x_123 + x_137 + x_140 + x_146
           + x_169 + x_179 + x_200 + x_219 + x_226 + x_231 + x_239 + x_240
           + x_244 + x_246 + x_253 >= 1
 cover_63: x_16 + x_20 + x_23 + x_39 + x_54 + x_69 + x_80 + x_82 + x_85 + x_92
           + x_95 + x_113 + x_116 + x_126 + x_133 + x_134 + x_150 + x_152
           + x_154 + x_170 + x_182 + x_192 + x_197 + x_210 + x_225 + x_248
           + x_254 >= 1
 cover_62: x_10 + x_15 + x_17 + x_60 + x_73 + x_79 + x_97 + x_104 + x_110
           + x_117 + x_125 + x_127 + x_136 + x_144 + x_157 + x_159 + x_162
           + x_165 + x_175 + x_184 + x_195 + x_199 + x_205 + x_221 + x_256 >= 1
 cover_61: x_0 + x_3 + x_41 + x_67 + x_78 + x_81 + x_98 + x_103 + x_109 + x_118
           + x_121 + x_128 + x_143 + x_146 + x_151 + x_167 + x_173 + x_196
           + x_213 + x_214 + x_228 + x_236 + x_239 + x_240 + x_246 + x_247 >= 1
 cover_60: x_4 + x_14 + x_26 + x_27 + x_52 + x_55 + x_60 + x_71 + x_72 + x_74
           + x_94 + x_96 + x_105 + x_108 + x_131 + x_133 + x_153 + x_163
           + x_176 + x_180 + x_195 + x_201 + x_209 + x_220 + x_231 + x_238 >= 1
 cover_68: x_0 + x_21 + x_34 + x_75 + x_86 + x_87 + x_89 + x_114 + x_124
           + x_147 + x_149 + x_164 + x_171 + x_186 + x_190 + x_193 + x_194
           + x_198 + x_208 + x_211 + x_222 + x_227 + x_232 + x_243 + x_252 >= 1
 cover_69: x_10 + x_33 + x_36 + x_42 + x_73 + x_97 + x_110 + x_125 + x_136
           + x_144 + x_157 + x_159 + x_162 + x_165 + x_175 + x_176 + x_184
           + x_195 + x_199 + x_205 + x_220 + x_221 + x_237 + x_238 + x_256 >= 1
 cover_70: x_2 + x_4 + x_12 + x_15 + x_29 + x_43 + x_60 + x_61 + x_62 + x_70
           + x_105 + x_107 + x_129 + x_159 + x_169 + x_175 + x_176 + x_199
           + x_223 + x_231 + x_249 + x_253 + x_255 + x_257 >= 1
 cover_71: x_0 + x_1 + x_6 + x_21 + x_34 + x_46 + x_68 + x_86 + x_91 + x_104
           + x_112 + x_129 + x_147 + x_153 + x_158 + x_160 + x_164 + x_171
           + x_177 + x_190 + x_198 + x_208 + x_220 + x_243 + x_252 >= 1
 cover_64: x_19 + x_49 + x_64 + x_67 + x_76 + x_80 + x_82 + x_99 + x_113
           + x_115 + x_134 + x_135 + x_138 + x_139 + x_141 + x_156 + x_161
           + x_170 + x_174 + x_212 + x_218 + x_224 + x_233 + x_238 + x_245
           + x_251 >= 1
 cover_65: x_10 + x_11 + x_14 + x_21 + x_26 + x_29 + x_46 + x_52 + x_61 + x_67
           + x_78 + x_97 + x_103 + x_104 + x_119 + x_127 + x_129 + x_130
           + x_137 + x_168 + x_179 + x_190 + x_220 + x_236 + x_240 + x_246
           + x_253 >= 1
 cover_66: x_2 + x_4 + x_12 + x_15 + x_29 + x_43 + x_60 + x_61 + x_62 + x_70
           + x_90 + x_105 + x_107 + x_129 + x_159 + x_169 + x_175 + x_176
           + x_199 + x_223 + x_231 + x_253 + x_255 + x_257 >= 1
 cover_67: x_0 + x_21 + x_34 + x_75 + x_86 + x_87 + x_89 + x_114 + x_124
           + x_147 + x_149 + x_164 + x_171 + x_186 + x_190 + x_193 + x_194
           + x_198 + x_208 + x_211 + x_222 + x_227 + x_232 + x_243 + x_252 >= 1
 cover_76: x_2 + x_4 + x_11 + x_12 + x_15 + x_17 + x_29 + x_62 + x_70 + x_74
           + x_78 + x_104 + x_107 + x_117 + x_127 + x_129 + x_130 + x_153
           + x_168 + x_184 + x_201 + x_205 + x_216 + x_223 + x_250 + x_255
           + x_257 >= 1
 cover_77: x_1 + x_13 + x_34 + x_38 + x_40 + x_46 + x_86 + x_91 + x_114 + x_147
           + x_153 + x_160 + x_164 + x_171 + x_177 + x_181 + x_198 + x_232
           + x_235 + x_236 + x_243 + x_249 + x_252 >= 1
 cover_78: x_2 + x_3 + x_7 + x_14 + x_23 + x_24 + x_41 + x_55 + x_59 + x_62
           + x_74 + x_101 + x_108 + x_118 + x_143 + x_144 + x_160 + x_169
           + x_173 + x_176 + x_196 + x_200 + x_201 + x_202 + x_214 + x_220
           + x_236 >= 1
 cover_79: x_26 + x_33 + x_39 + x_42 + x_43 + x_72 + x_78 + x_90 + x_94 + x_98
           + x_109 + x_110 + x_121 + x_122 + x_125 + x_126 + x_133 + x_144
           + x_154 + x_157 + x_163 + x_165 + x_172 + x_184 + x_226 + x_229
           + x_237 + x_255 + x_256 >= 1
 cover_72: x_31 + x_37 + x_44 + x_49 + x_51 + x_57 + x_58 + x_100 + x_115
           + x_124 + x_134 + x_135 + x_138 + x_174 + x_178 + x_182 + x_212
           + x_218 + x_233 + x_242 + x_251 >= 1
 cover_73: x_18 + x_46 + x_47 + x_48 + x_68 + x_70 + x_86 + x_91 + x_100
           + x_101 + x_123 + x_129 + x_137 + x_140 + x_146 + x_147 + x_153
           + x_160 + x_169 + x_171 + x_179 + x_181 + x_198 + x_200 + x_219
           + x_236 + x_246 + x_249 + x_252 >= 1
 cover_74: x_5 + x_7 + x_9 + x_24 + x_41 + x_51 + x_65 + x_81 + x_87 + x_114
           + x_120 + x_132 + x_151 + x_155 + x_164 + x_171 + x_189 + x_203
           + x_232 + x_235 + x_236 + x_252 >= 1
 cover_75: x_0 + x_11 + x_13 + x_27 + x_29 + x_32 + x_36 + x_53 + x_84 + x_85
           + x_93 + x_128 + x_129 + x_130 + x_143 + x_150 + x_151 + x_167
           + x_186 + x_196 + x_197 + x_213 + x_225 + x_226 + x_228 + x_248 >= 1
 cover_80: x_8 + x_28 + x_31 + x_37 + x_50 + x_57 + x_79 + x_98 + x_115 + x_135
           + x_138 + x_142 + x_158 + x_178 + x_185 + x_206 + x_212 + x_237
           + x_242 >= 1
Bounds
 0 <= x_0 <= 1
 0 <= x_1 <= 1
 0 <= x_2 <= 1
 0 <= x_3 <= 1
 0 <= x_4 <= 1
 0 <= x_5 <= 1
 0 <= x_6 <= 1
 0 <= x_7 <= 1
 0 <= x_8 <= 1
 0 <= x_9 <= 1
 0 <= x_10 <= 1
 0 <= x_11 <= 1
 0 <= x_12 <= 1
 0 <= x_13 <= 1
 0 <= x_14 <= 1
 0 <= x_15 <= 1
 0 <= x_16 <= 1
 0 <= x_17 <= 1
 0 <= x_18 <= 1
 0 <= x_19 <= 1
 0 <= x_20 <= 1
 0 <= x_21 <= 1
 0 <= x_22 <= 1
 0 <= x_23 <= 1
 0 <= x_24 <= 1
 0 <= x_25 <= 1
 0 <= x_26 <= 1
 0 <= x_27 <= 1
 0 <= x_28 <= 1
 0 <= x_29 <= 1
 0 <= x_30 <= 1
 0 <= x_31 <= 1
 0 <= x_32 <= 1
 0 <= x_33 <= 1
 0 <= x_34 <= 1
 0 <= x_35 <= 1
 0 <= x_36 <= 1
 0 <= x_37 <= 1
 0 <= x_38 <= 1
 0 <= x_39 <= 1
 0 <= x_40 <= 1
 0 <= x_41 <= 1
 0 <= x_42 <= 1
 0 <= x_43 <= 1
 0 <= x_44 <= 1
 0 <= x_45 <= 1
 0 <= x_46 <= 1
 0 <= x_47 <= 1
 0 <= x_48 <= 1
 0 <= x_49 <= 1
 0 <= x_50 <= 1
 0 <= x_51 <= 1
 0 <= x_52 <= 1
 0 <= x_53 <= 1
 0 <= x_54 <= 1
 0 <= x_55 <= 1
 0 <= x_56 <= 1
 0 <= x_57 <= 1
 0 <= x_58 <= 1
 0 <= x_59 <= 1
 0 <= x_60 <= 1
 0 <= x_61 <= 1
 0 <= x_62 <= 1
 0 <= x_63 <= 1
 0 <= x_64 <= 1
 0 <= x_65 <= 1
 0 <= x_66 <= 1
 0 <= x_67 <= 1
 0 <= x_68 <= 1
 0 <= x_69 <= 1
 0 <= x_70 <= 1
 0 <= x_71 <= 1
 0 <= x_72 <= 1
 0 <= x_73 <= 1
 0 <= x_74 <= 1
 0 <= x_75 <= 1
 0 <= x_76 <= 1
 0 <= x_77 <= 1
 0 <= x_78 <= 1
 0 <= x_79 <= 1
 0 <= x_80 <= 1
 0 <= x_81 <= 1
 0 <= x_82 <= 1
 0 <= x_83 <= 1
 0 <= x_84 <= 1
 0 <= x_85 <= 1
 0 <= x_86 <= 1
 0 <= x_87 <= 1
 0 <= x_88 <= 1
 0 <= x_89 <= 1
 0 <= x_90 <= 1
 0 <= x_91 <= 1
 0 <= x_92 <= 1
 0 <= x_93 <= 1
 0 <= x_94 <= 1
 0 <= x_95 <= 1
 0 <= x_96 <= 1
 0 <= x_97 <= 1
 0 <= x_98 <= 1
 0 <= x_99 <= 1
 0 <= x_100 <= 1
 0 <= x_101 <= 1
 0 <= x_102 <= 1
 0 <= x_103 <= 1
 0 <= x_104 <= 1
 0 <= x_105 <= 1
 0 <= x_106 <= 1
 0 <= x_107 <= 1
 0 <= x_108 <= 1
 0 <= x_109 <= 1
 0 <= x_110 <= 1
 0 <= x_111 <= 1
 0 <= x_112 <= 1
 0 <= x_113 <= 1
 0 <= x_114 <= 1
 0 <= x_115 <= 1
 0 <= x_116 <= 1
 0 <= x_117 <= 1
 0 <= x_118 <= 1
 0 <= x_119 <= 1
 0 <= x_120 <= 1
 0 <= x_121 <= 1
 0 <= x_122 <= 1
 0 <= x_123 <= 1
 0 <= x_124 <= 1
 0 <= x_125 <= 1
 0 <= x_126 <= 1
 0 <= x_127 <= 1
 0 <= x_128 <= 1
 0 <= x_129 <= 1
 0 <= x_130 <= 1
 0 <= x_131 <= 1
 0 <= x_132 <= 1
 0 <= x_133 <= 1
 0 <= x_134 <= 1
 0 <= x_135 <= 1
 0 <= x_136 <= 1
 0 <= x_137 <= 1
 0 <= x_138 <= 1
 0 <= x_139 <= 1
 0 <= x_140 <= 1
 0 <= x_141 <= 1
 0 <= x_142 <= 1
 0 <= x_143 <= 1
 0 <= x_144 <= 1
 0 <= x_145 <= 1
 0 <= x_146 <= 1
 0 <= x_147 <= 1
 0 <= x_148 <= 1
 0 <= x_149 <= 1
 0 <= x_150 <= 1
 0 <= x_151 <= 1
 0 <= x_152 <= 1
 0 <= x_153 <= 1
 0 <= x_154 <= 1
 0 <= x_155 <= 1
 0 <= x_156 <= 1
 0 <= x_157 <= 1
 0 <= x_158 <= 1
 0 <= x_159 <= 1
 0 <= x_160 <= 1
 0 <= x_161 <= 1
 0 <= x_162 <= 1
 0 <= x_163 <= 1
 0 <= x_164 <= 1
 0 <= x_165 <= 1
 0 <= x_166 <= 1
 0 <= x_167 <= 1
 0 <= x_168 <= 1
 0 <= x_169 <= 1
 0 <= x_170 <= 1
 0 <= x_171 <= 1
 0 <= x_172 <= 1
 0 <= x_173 <= 1
 0 <= x_174 <= 1
 0 <= x_175 <= 1
 0 <= x_176 <= 1
 0 <= x_177 <= 1
 0 <= x_178 <= 1
 0 <= x_179 <= 1
 0 <= x_180 <= 1
 0 <= x_181 <= 1
 0 <= x_182 <= 1
 0 <= x_183 <= 1
 0 <= x_184 <= 1
 0 <= x_185 <= 1
 0 <= x_186 <= 1
 0 <= x_187 <= 1
 0 <= x_188 <= 1
 0 <= x_189 <= 1
 0 <= x_190 <= 1
 0 <= x_191 <= 1
 0 <= x_192 <= 1
 0 <= x_193 <= 1
 0 <= x_194 <= 1
 0 <= x_195 <= 1
 0 <= x_196 <= 1
 0 <= x_197 <= 1
 0 <= x_198 <= 1
 0 <= x_199 <= 1
 0 <= x_200 <= 1
 0 <= x_201 <= 1
 0 <= x_202 <= 1
 0 <= x_203 <= 1
 0 <= x_204 <= 1
 0 <= x_205 <= 1
 0 <= x_206 <= 1
 0 <= x_207 <= 1
 0 <= x_208 <= 1
 0 <= x_209 <= 1
 0 <= x_210 <= 1
 0 <= x_211 <= 1
 0 <= x_212 <= 1
 0 <= x_213 <= 1
 0 <= x_214 <= 1
 0 <= x_215 <= 1
 0 <= x_216 <= 1
 0 <= x_217 <= 1
 0 <= x_218 <= 1
 0 <= x_219 <= 1
 0 <= x_220 <= 1
 0 <= x_221 <= 1
 0 <= x_222 <= 1
 0 <= x_223 <= 1
 0 <= x_224 <= 1
 0 <= x_225 <= 1
 0 <= x_226 <= 1
 0 <= x_227 <= 1
 0 <= x_228 <= 1
 0 <= x_229 <= 1
 0 <= x_230 <= 1
 0 <= x_231 <= 1
 0 <= x_232 <= 1
 0 <= x_233 <= 1
 0 <= x_234 <= 1
 0 <= x_235 <= 1
 0 <= x_236 <= 1
 0 <= x_237 <= 1
 0 <= x_238 <= 1
 0 <= x_239 <= 1
 0 <= x_240 <= 1
 0 <= x_241 <= 1
 0 <= x_242 <= 1
 0 <= x_243 <= 1
 0 <= x_244 <= 1
 0 <= x_245 <= 1
 0 <= x_246 <= 1
 0 <= x_247 <= 1
 0 <= x_248 <= 1
 0 <= x_249 <= 1
 0 <= x_250 <= 1
 0 <= x_251 <= 1
 0 <= x_252 <= 1
 0 <= x_253 <= 1
 0 <= x_254 <= 1
 0 <= x_255 <= 1
 0 <= x_256 <= 1
 0 <= x_257 <= 1
Binaries
 x_0  x_1  x_2  x_3  x_4  x_5  x_6  x_7  x_8  x_9  x_10  x_11  x_12  x_13 
 x_14  x_15  x_16  x_17  x_18  x_19  x_20  x_21  x_22  x_23  x_24  x_25  x_26 
 x_27  x_28  x_29  x_30  x_31  x_32  x_33  x_34  x_35  x_36  x_37  x_38  x_39 
 x_40  x_41  x_42  x_43  x_44  x_45  x_46  x_47  x_48  x_49  x_50  x_51  x_52 
 x_53  x_54  x_55  x_56  x_57  x_58  x_59  x_60  x_61  x_62  x_63  x_64  x_65 
 x_66  x_67  x_68  x_69  x_70  x_71  x_72  x_73  x_74  x_75  x_76  x_77  x_78 
 x_79  x_80  x_81  x_82  x_83  x_84  x_85  x_86  x_87  x_88  x_89  x_90  x_91 
 x_92  x_93  x_94  x_95  x_96  x_97  x_98  x_99  x_100  x_101  x_102  x_103 
 x_104  x_105  x_106  x_107  x_108  x_109  x_110  x_111  x_112  x_113  x_114 
 x_115  x_116  x_117  x_118  x_119  x_120  x_121  x_122  x_123  x_124  x_125 
 x_126  x_127  x_128  x_129  x_130  x_131  x_132  x_133  x_134  x_135  x_136 
 x_137  x_138  x_139  x_140  x_141  x_142  x_143  x_144  x_145  x_146  x_147 
 x_148  x_149  x_150  x_151  x_152  x_153  x_154  x_155  x_156  x_157  x_158 
 x_159  x_160  x_161  x_162  x_163  x_164  x_165  x_166  x_167  x_168  x_169 
 x_170  x_171  x_172  x_173  x_174  x_175  x_176  x_177  x_178  x_179  x_180 
 x_181  x_182  x_183  x_184  x_185  x_186  x_187  x_188  x_189  x_190  x_191 
 x_192  x_193  x_194  x_195  x_196  x_197  x_198  x_199  x_200  x_201  x_202 
 x_203  x_204  x_205  x_206  x_207  x_208  x_209  x_210  x_211  x_212  x_213 
 x_214  x_215  x_216  x_217  x_218  x_219  x_220  x_221  x_222  x_223  x_224 
 x_225  x_226  x_227  x_228  x_229  x_230  x_231  x_232  x_233  x_234  x_235 
 x_236  x_237  x_238  x_239  x_240  x_241  x_242  x_243  x_244  x_245  x_246 
 x_247  x_248  x_249  x_250  x_251  x_252  x_253  x_254  x_255  x_256  x_257 
End
